p edge 60 528
e 1 2
e 1 4
e 1 10
e 1 17
e 1 21
e 1 29
e 1 30
e 1 33
e 1 36
e 1 41
e 1 48
e 1 51
e 1 54
e 1 58
e 2 5
e 2 8
e 2 9
e 2 10
e 2 12
e 2 14
e 2 17
e 2 18
e 2 21
e 2 35
e 2 36
e 2 41
e 2 46
e 2 47
e 2 53
e 2 54
e 2 55
e 2 58
e 2 60
e 3 4
e 3 12
e 3 13
e 3 15
e 3 16
e 3 18
e 3 20
e 3 22
e 3 25
e 3 26
e 3 29
e 3 30
e 3 31
e 3 33
e 3 35
e 3 37
e 3 38
e 3 42
e 3 44
e 3 55
e 3 60
e 4 5
e 4 10
e 4 15
e 4 18
e 4 21
e 4 22
e 4 31
e 4 35
e 4 38
e 4 39
e 4 42
e 4 43
e 4 48
e 4 51
e 4 52
e 4 56
e 4 60
e 5 6
e 5 14
e 5 18
e 5 20
e 5 27
e 5 29
e 5 32
e 5 34
e 5 37
e 5 39
e 5 43
e 5 45
e 5 46
e 5 48
e 5 53
e 5 54
e 6 12
e 6 16
e 6 18
e 6 19
e 6 22
e 6 25
e 6 27
e 6 31
e 6 33
e 6 35
e 6 36
e 6 37
e 6 39
e 6 40
e 6 43
e 6 52
e 6 54
e 6 56
e 6 58
e 6 60
e 7 9
e 7 12
e 7 15
e 7 19
e 7 20
e 7 23
e 7 24
e 7 30
e 7 33
e 7 35
e 7 37
e 7 44
e 7 50
e 7 52
e 7 53
e 8 9
e 8 14
e 8 17
e 8 19
e 8 23
e 8 25
e 8 27
e 8 28
e 8 31
e 8 32
e 8 36
e 8 43
e 8 47
e 8 49
e 8 50
e 9 12
e 9 24
e 9 32
e 9 34
e 9 38
e 9 40
e 9 41
e 9 43
e 9 46
e 9 49
e 9 50
e 9 51
e 9 57
e 10 28
e 10 31
e 10 32
e 10 33
e 10 40
e 10 43
e 10 44
e 10 45
e 10 49
e 10 51
e 10 60
e 11 13
e 11 26
e 11 31
e 11 35
e 11 41
e 11 44
e 11 47
e 11 48
e 11 49
e 11 50
e 11 51
e 11 58
e 11 59
e 11 60
e 12 17
e 12 20
e 12 23
e 12 24
e 12 29
e 12 30
e 12 32
e 12 34
e 12 37
e 12 44
e 12 45
e 12 47
e 12 49
e 12 60
e 13 14
e 13 16
e 13 18
e 13 19
e 13 26
e 13 27
e 13 28
e 13 31
e 13 35
e 13 38
e 13 39
e 13 40
e 13 48
e 13 49
e 13 56
e 13 57
e 13 58
e 14 18
e 14 19
e 14 26
e 14 30
e 14 34
e 14 35
e 14 40
e 14 44
e 14 46
e 14 47
e 14 48
e 14 50
e 14 56
e 14 57
e 14 58
e 15 30
e 15 36
e 15 40
e 15 41
e 15 42
e 15 47
e 15 49
e 15 50
e 15 51
e 15 54
e 15 60
e 16 20
e 16 22
e 16 24
e 16 25
e 16 29
e 16 30
e 16 33
e 16 36
e 16 41
e 16 45
e 16 46
e 16 53
e 16 54
e 16 55
e 16 60
e 17 18
e 17 19
e 17 22
e 17 28
e 17 29
e 17 31
e 17 33
e 17 34
e 17 37
e 17 38
e 17 39
e 17 46
e 17 50
e 17 56
e 18 22
e 18 24
e 18 25
e 18 29
e 18 32
e 18 37
e 18 39
e 18 40
e 18 48
e 18 51
e 18 52
e 18 55
e 18 56
e 19 29
e 19 36
e 19 37
e 19 38
e 19 39
e 19 46
e 19 48
e 19 49
e 19 50
e 19 53
e 19 54
e 19 56
e 20 21
e 20 23
e 20 29
e 20 31
e 20 35
e 20 36
e 20 44
e 20 55
e 21 30
e 21 33
e 21 37
e 21 38
e 21 42
e 21 44
e 21 46
e 21 49
e 21 54
e 21 55
e 21 59
e 22 23
e 22 24
e 22 29
e 22 38
e 22 44
e 22 45
e 22 46
e 22 48
e 22 53
e 22 57
e 22 59
e 23 25
e 23 28
e 23 31
e 23 33
e 23 34
e 23 36
e 23 40
e 23 47
e 23 49
e 23 50
e 23 52
e 23 53
e 24 28
e 24 29
e 24 42
e 24 43
e 24 44
e 24 47
e 24 51
e 24 52
e 24 53
e 24 55
e 24 56
e 25 28
e 25 32
e 25 33
e 25 36
e 25 41
e 25 43
e 25 53
e 26 28
e 26 32
e 26 33
e 26 43
e 26 48
e 26 52
e 26 54
e 26 55
e 27 28
e 27 32
e 27 38
e 27 39
e 27 41
e 27 42
e 27 43
e 27 45
e 27 54
e 28 36
e 28 38
e 28 39
e 28 47
e 28 48
e 28 49
e 28 53
e 28 55
e 28 57
e 29 30
e 29 36
e 29 41
e 29 48
e 29 51
e 29 55
e 30 32
e 30 40
e 30 53
e 30 56
e 30 57
e 30 59
e 31 37
e 31 40
e 31 48
e 31 50
e 31 51
e 31 52
e 32 34
e 32 39
e 32 43
e 32 51
e 32 53
e 32 54
e 32 55
e 32 57
e 32 58
e 33 35
e 33 38
e 33 39
e 33 40
e 33 41
e 33 44
e 33 46
e 33 50
e 33 51
e 33 54
e 33 57
e 33 59
e 34 40
e 34 51
e 34 52
e 34 54
e 34 55
e 34 57
e 34 58
e 34 59
e 35 38
e 35 40
e 35 47
e 35 49
e 35 51
e 35 53
e 35 55
e 35 58
e 36 37
e 36 40
e 36 42
e 36 44
e 36 45
e 36 46
e 36 50
e 36 52
e 36 55
e 36 57
e 37 38
e 37 44
e 37 51
e 37 52
e 37 56
e 37 57
e 37 58
e 38 42
e 38 50
e 38 51
e 38 52
e 38 53
e 38 59
e 39 40
e 39 41
e 39 47
e 39 50
e 39 53
e 39 54
e 39 55
e 40 42
e 40 43
e 40 53
e 40 59
e 40 60
e 41 43
e 41 44
e 41 47
e 41 50
e 41 56
e 42 43
e 42 44
e 42 45
e 42 53
e 42 55
e 42 58
e 43 44
e 43 46
e 43 48
e 43 49
e 43 52
e 43 55
e 44 46
e 44 52
e 44 55
e 44 57
e 45 50
e 45 51
e 45 54
e 45 56
e 45 58
e 45 60
e 46 47
e 46 49
e 46 50
e 46 55
e 47 52
e 47 53
e 47 55
e 47 59
e 47 60
e 48 54
e 48 55
e 48 57
e 48 59
e 49 51
e 49 52
e 50 52
e 50 53
e 50 55
e 50 57
e 51 54
e 51 55
e 51 60
e 52 53
e 52 55
e 52 57
e 53 57
e 53 58
e 53 59
e 54 55
e 54 57
e 54 58
e 54 60
e 55 56
e 55 60
e 56 57
e 56 58
e 56 59
e 56 60
e 59 60
